c turning on binary mode checking
c parsing input formula with 259840 variables and 1039929 clauses
c finished parsing, read 23514390 bytes from proof file
c detected empty clause; start verification via backward checking
c 10417 of 1039929 clauses in core                            
c 12531 of 605989 lemmas in core using 77058 resolution steps
c 0 RAT lemmas in core; 651 redundant literals in core lemmas
s VERIFIED
c verification time: 2.721 seconds
